100 8
591 371
589 709
796 731
410 117
216 545
636 571
476 285
302 554
432 349
729 289
460 237
325 236
583 127
433 824
803 653
725 576
564 801
516 134
412 649
509 729
550 603
980 137
387 416
560 553
225 273
668 231
358 284
380 936
852 237
99 613
710 775
528 526
618 631
540 752
171 671
217 484
410 77
407 142
659 324
260 633
174 439
920 45
801 382
601 641
184 554
102 625
727 662
216 627
128 465
101 675
643 745
610 635
351 795
238 543
443 117
358 828
451 190
321 561
675 405
486 352
589 620
335 82
338 197
281 418
159 513
610 720
491 364
410 219
583 216
605 475
390 214
570 257
193 685
502 202
254 437
671 224
293 601
476 294
543 285
715 765
356 77
188 573
590 428
600 594
448 155
369 119
371 337
590 542
388 928
338 230
278 663
472 313
422 204
915 198
265 478
626 203
853 758
670 617
599 570
727 381
